O64 H128  : POSCAR generated by Gabedit
       1.0000000000
            13.0301940000          0.0000000000          0.0000000000
             0.0000000000         13.0301940000          0.0000000000
             0.0000000000          0.0000000000         13.0301940000
           O      H 
          64    128 
Cartesian
                1.9766300000          1.2318400000          1.8528100000
                2.4618700000         11.1904000000          8.5591500000
                8.9204200000          1.7606900000          2.6551200000
                9.5875200000         -0.1982850000         10.1877000000
                9.3966700000          0.0269730000          4.8315700000
                6.3571700000          2.0004800000         -0.0377310000
                6.6305300000          2.7582700000          8.3754600000
               10.6011000000          8.7549300000         12.6543000000
                6.4266000000          9.5531400000          9.8989300000
                8.9497400000         10.1187000000          8.5804700000
               10.6454000000          2.6050100000         10.3641000000
                6.3656000000          8.2568000000          4.7108300000
                5.1661000000          4.7478700000          6.3684200000
                5.9399900000          1.1232300000          6.1419500000
                8.3469300000          0.0107940000          0.5868380000
                4.1473100000          7.8579400000          1.0215400000
                1.4516500000          5.3199900000         12.5607000000
                1.6730600000          0.1199030000          6.2005500000
               11.0811000000          5.2283000000          6.4560400000
                7.6181900000          5.4865800000          4.6608300000
                7.0058100000          5.6182300000          1.0188500000
                0.1484890000          2.4422900000          3.8706100000
                6.6579800000          6.9301300000          8.3588500000
                4.8573500000         11.7112000000         10.2694000000
                4.3517800000          2.9751300000          2.2766600000
               11.8331000000          1.1660200000          6.5078400000
                1.4077300000          5.5455800000          4.9141600000
                2.4866000000         11.9376000000          3.3631200000
                7.8625900000          7.3675400000         11.5091000000
               12.2766000000          3.0281800000         12.4585000000
               12.0711000000          6.7912400000         11.4469000000
                6.6139100000          2.9875500000          3.8650100000
               10.3636000000          8.2779200000          2.8585100000
                1.6613400000          5.3023600000          9.7399100000
               11.7454000000          8.8381000000          9.5280100000
               11.0821000000          3.1769800000          2.0624500000
               10.7802000000          9.9587600000          5.1626000000
                9.7183000000          5.9249000000          9.3685500000
               -0.3060590000          3.4850400000          8.4575800000
                4.5061700000          4.6421200000         -0.0102170000
                8.6663600000          3.9834000000         12.6463000000
                1.2383100000          8.5460500000          4.6399900000
               10.8319000000         11.7692000000         -0.2857070000
                2.5019500000         10.1625000000          0.3650010000
                2.7845200000          2.4515400000         12.0873000000
                6.5509800000         12.1552000000          4.6736800000
                7.5410300000          8.5141800000          2.1479800000
               11.8564000000         12.5787000000          2.3544700000
               10.2583000000          5.6204300000          3.6354000000
                4.5972300000         12.0867000000          0.3382990000
                0.9924560000          0.4441980000         12.0647000000
                5.1498800000          5.2202800000         10.3956000000
                6.5414900000         11.3288000000          1.8651400000
                0.4960130000         10.0321000000          2.5242100000
                8.3117900000          4.6375900000          7.1973600000
                4.3914400000          8.9693600000          7.7049200000
               12.5392000000          8.3216600000          6.9758800000
                0.6610730000         10.3871000000         11.1151000000
                2.9750300000          6.3970100000          7.3160300000
                3.8925300000          9.3931800000          4.6699400000
                6.7347700000          0.8276230000         10.1890000000
                3.4969400000          2.8896900000          9.0874400000
                2.7910400000          5.4569200000          2.5873800000
                8.1068900000         10.1127000000          5.9669700000
                2.7763400000          1.7955300000          1.9195200000
                1.8831700000          1.0789600000          0.8615840000
                2.2209800000         11.9186000000          7.9771800000
                2.6522600000         10.3658000000          8.0826800000
                8.6296600000          1.2331300000          1.9242400000
                9.1902800000          1.0961200000          3.3508200000
                8.7428700000          0.1786560000         10.5453000000
               10.1330000000          0.5759730000         10.2804000000
                8.6041400000         12.6192000000          5.2114500000
                9.8114600000         12.2936000000          4.4174400000
                7.0353300000          2.7533200000         -0.0682340000
                6.8368200000          1.1958100000          0.2246450000
                6.5755100000          2.2787900000          7.5325300000
                6.7549000000          2.0515800000          9.0796600000
               11.3006000000          8.0315200000         12.3813000000
                9.7127000000          8.3854500000         12.3753000000
                7.1476900000          9.5381900000          9.2743600000
                6.7374000000          8.9931300000         10.6625000000
                9.2104400000         11.0423000000          8.8331600000
                9.8026400000          9.7158100000          8.7212100000
                9.7732800000          3.0318400000         10.4226000000
               11.0227000000          2.5742500000         11.2996000000
                5.5252800000          8.6096000000          4.4740100000
                6.9387900000          8.9496000000          5.2131900000
                4.3375800000          5.2212600000          6.6052600000
                5.1588700000          4.0003700000          7.0253000000
                5.0759200000          1.2111800000          6.5971500000
                5.9411100000          0.2023840000          5.6891700000
                7.6384900000         12.4606000000          1.0523100000
                9.1040800000         12.4795000000          0.3057980000
                3.9668400000          6.9117600000          1.2020700000
                4.6407300000          8.0271700000          1.8233300000
                1.8508800000          5.3280500000         11.6518000000
                1.0172300000          4.4634400000         12.7218000000
                0.7543700000          0.2538320000          6.3966000000
                1.9112200000         12.5988000000          5.4351800000
               11.0007000000          5.1937800000          5.4571800000
               10.2443000000          4.7814900000          6.7002400000
                6.8057200000          6.0147800000          4.7606500000
                7.3016300000          4.6264800000          4.3675600000
                6.1136800000          5.2681500000          0.7971120000
                7.1150900000          5.5541900000          1.9697900000
               -0.0423740000          1.7726900000          4.5634400000
                0.7973710000          1.9553500000          3.3109600000
                6.1073000000          6.5940500000          7.6246800000
                7.5125800000          6.5783000000          7.9500600000
                3.9598000000         11.4579000000          9.7950200000
                5.4313000000         10.8565000000         10.1135000000
                5.0615800000          2.7655200000          2.9429000000
                4.8512100000          2.8834500000          1.4191300000
               11.7199000000          2.0192500000          6.9780900000
               10.9812000000          0.9489560000          6.0640500000
                1.9159700000          5.5377900000          4.0868900000
                0.8761430000          4.7327200000          4.8577400000
                2.1635800000         12.6020000000          2.7078100000
                1.7307000000         11.2521000000          3.3686000000
                7.4460000000          6.9835400000         12.3192000000
                8.4341100000          6.7124500000         11.0139000000
               11.9177000000          3.3974000000          0.3197620000
               -0.2010070000          2.2995600000         -0.2699680000
               -0.0620380000          6.3429100000         11.6064000000
               11.5696000000          6.0443300000         11.1214000000
                7.4028500000          2.6634900000          3.3726400000
                6.5435300000          2.3475700000          4.6516600000
               10.5902000000          8.3335700000          1.9006400000
               10.4900000000          7.3253800000          2.9921800000
                1.8166500000          5.9394900000          9.0112400000
                1.1113000000          4.5888700000          9.3136900000
               12.3172000000          8.6611800000          8.7387900000
               11.6555000000          7.9723100000         10.0607000000
               10.3237000000          2.5708400000          2.2277100000
               11.7981000000          2.9200300000          2.6428100000
               11.5525000000          9.6604600000          5.6867600000
               10.7770000000          9.4166400000          4.3892100000
                9.7261600000          6.6717000000          8.7906200000
                9.2477100000          5.3132400000          8.8075000000
               12.4061000000          4.2076200000          7.8947500000
               12.0700000000          3.2454700000          9.1233700000
                5.0122000000          4.9978100000         12.2248000000
                3.5782700000          4.5876200000         -0.2769540000
                8.0606900000          4.7092200000         -0.0307930000
                9.0563800000          3.6235100000          0.4625120000
                0.8672080000          7.6552000000          4.3593800000
                0.8638010000          9.1404300000          3.9431000000
               10.4478000000         12.0115000000         11.8798000000
               10.8264000000         10.7579000000         12.7109000000
                2.8836700000          9.3105700000          0.7048730000
                2.0819200000          9.8490800000         12.5575000000
                3.7561400000          2.5033600000         12.2096000000
                2.7320000000          2.6003800000         11.1373000000
                6.7642100000         11.3392000000          5.1804000000
                6.4234400000         11.8547000000          3.7340400000
                7.0511200000          8.2672200000          2.9538300000
                8.4845300000          8.5337200000          2.4012000000
               11.4439000000         12.5553000000          1.4709300000
               12.5983000000          0.2176380000          2.2466300000
                9.3344300000          5.6636700000          4.0462400000
               10.4346000000          4.7093700000          3.2072800000
                4.7482700000         11.9976000000         12.3981000000
                3.8292800000         11.5720000000          0.5679550000
                1.7117500000          0.7066500000         11.5347000000
                0.5584190000         -0.2829560000         11.6162000000
                5.3706100000          6.1106500000         10.0881000000
                5.8635900000          4.7678300000          9.8868900000
                6.9161900000         10.4101000000          1.9184700000
                5.8832600000         11.3338000000          1.0712900000
                1.1087700000         10.3310000000          1.7814300000
               -0.1656000000         10.6755000000          2.4663600000
                7.8120800000          3.8800100000          7.5019100000
                8.1207000000          4.8627800000          6.2918700000
                5.1221700000          8.9103500000          8.3792400000
                4.7068200000          9.4742900000          6.8853400000
                0.4201440000          8.2779900000          6.5870800000
               12.2098000000          7.3725300000          6.8098300000
               -0.1445160000          9.9413700000         10.7235000000
                1.1158100000         10.7579000000         10.3287000000
                3.3973200000          7.2941000000          7.3131700000
                2.1681500000          6.3871300000          6.7524900000
                2.9466700000          9.0485500000          4.9177700000
                3.7244900000         10.1489000000          4.1239500000
                6.5103000000          1.2205800000         11.0730000000
                6.0561500000          0.0599930000         10.1075000000
                4.4274000000          2.7270400000          9.0133600000
                3.4344500000          3.8806500000          9.2190000000
                3.0860200000          4.5502700000          2.3642000000
                2.2693700000          5.7642800000          1.8139400000
                8.1801300000          9.8275100000          6.9130100000
                9.0975600000         10.1448000000          5.6900500000
